Minimize
	value: tt

Subject to
tt + 1000 s_1_1 > 0.0
tt - t_1_1 - 1000.000000 s_1_1  > -971.548844
tt + 1000 s_2_1 > 0.0
tt - t_2_1 - 1000.000000 s_2_1  > -952.103933
tt + 1000 s_1_2 > 0.0
tt - t_1_2 - 1009.156289 s_1_2  + 9.156289 s_1_7  > -965.965733
tt + 1000 s_2_2 > 0.0
tt - t_2_2 - 1009.196603 s_2_2  + 9.196603 s_2_7  > -953.792967
tt + 1000 s_1_3 > 0.0
tt - t_1_3 - 1009.156289 s_1_3  + 9.156289 s_1_7  > -973.123111
tt + 1000 s_2_3 > 0.0
tt - t_2_3 - 1009.196603 s_2_3  + 9.196603 s_2_7  > -950.417322
tt + 1000 s_1_4 > 0.0
tt - t_1_4 - 1013.565099 s_1_4  + 4.408810 s_1_3  + 9.156289 s_1_7  > -978.499208
tt + 1000 s_2_4 > 0.0
tt - t_2_4 - 1012.852339 s_2_4  + 3.655735 s_2_3  + 9.196603 s_2_7  > -972.667200
tt + 1000 s_1_5 > 0.0
tt - t_1_5 - 1009.156289 s_1_5  + 9.156289 s_1_7  > -974.833456
tt + 1000 s_2_5 > 0.0
tt - t_2_5 - 1009.196603 s_2_5  + 9.196603 s_2_7  > -964.289389
tt + 1000 s_1_6 > 0.0
tt - t_1_6 - 1022.044052 s_1_6  + 4.408810 s_1_3  + 4.408810 s_1_1  + 4.408810 s_1_5  + 4.408810 s_1_4  + 4.408810 s_1_2  > -989.855000
tt + 1000 s_2_6 > 0.0
tt - t_2_6 - 1018.278676 s_2_6  + 3.655735 s_2_3  + 3.655735 s_2_1  + 3.655735 s_2_5  + 3.655735 s_2_4  + 3.655735 s_2_2  > -941.661600
tt + 1000 s_1_7 > 0.0
tt - t_1_7 - 1000.000000 s_1_7  > -980.271800
tt + 1000 s_2_7 > 0.0
tt - t_2_7 - 1000.000000 s_2_7  > -971.371900
s_1_1 + s_2_1 = 1
s_1_2 + s_2_2 = 1
s_1_3 + s_2_3 = 1
s_1_4 + s_2_4 = 1
s_1_5 + s_2_5 = 1
s_1_6 + s_2_6 = 1
s_1_7 + s_2_7 = 1
s_1_1 + s_1_2 + 1000 r_1_1_2 >= 2
- s_1_1 - s_1_2 - 1000 r_1_1_2 >= -1001
t_1_1 - t_1_2 - 1000.000000 u_1_1_2 - 9.156289 s_1_2  + 9.156289 s_1_7  + 2000.000000 r_1_1_2 > -965.965733
s_2_1 + s_2_2 + 1000 r_2_1_2 >= 2
- s_2_1 - s_2_2 - 1000 r_2_1_2 >= -1001
t_2_1 - t_2_2 - 1000.000000 u_2_1_2 - 9.196603 s_2_2  + 9.196603 s_2_7  + 2000.000000 r_2_1_2 > -953.792967
s_1_1 + s_1_3 + 1000 r_1_1_3 >= 2
- s_1_1 - s_1_3 - 1000 r_1_1_3 >= -1001
t_1_1 - t_1_3 - 1000.000000 u_1_1_3 - 9.156289 s_1_3  + 9.156289 s_1_7  + 2000.000000 r_1_1_3 > -973.123111
s_2_1 + s_2_3 + 1000 r_2_1_3 >= 2
- s_2_1 - s_2_3 - 1000 r_2_1_3 >= -1001
t_2_1 - t_2_3 - 1000.000000 u_2_1_3 - 9.196603 s_2_3  + 9.196603 s_2_7  + 2000.000000 r_2_1_3 > -950.417322
s_1_1 + s_1_4 + 1000 r_1_1_4 >= 2
- s_1_1 - s_1_4 - 1000 r_1_1_4 >= -1001
t_1_1 - t_1_4 - 1000.000000 u_1_1_4 - 13.565099 s_1_4  + 4.408810 s_1_3  + 9.156289 s_1_7  + 2000.000000 r_1_1_4 > -978.499208
s_2_1 + s_2_4 + 1000 r_2_1_4 >= 2
- s_2_1 - s_2_4 - 1000 r_2_1_4 >= -1001
t_2_1 - t_2_4 - 1000.000000 u_2_1_4 - 12.852339 s_2_4  + 3.655735 s_2_3  + 9.196603 s_2_7  + 2000.000000 r_2_1_4 > -972.667200
s_1_1 + s_1_5 + 1000 r_1_1_5 >= 2
- s_1_1 - s_1_5 - 1000 r_1_1_5 >= -1001
t_1_1 - t_1_5 - 1000.000000 u_1_1_5 - 9.156289 s_1_5  + 9.156289 s_1_7  + 2000.000000 r_1_1_5 > -974.833456
s_2_1 + s_2_5 + 1000 r_2_1_5 >= 2
- s_2_1 - s_2_5 - 1000 r_2_1_5 >= -1001
t_2_1 - t_2_5 - 1000.000000 u_2_1_5 - 9.196603 s_2_5  + 9.196603 s_2_7  + 2000.000000 r_2_1_5 > -964.289389
t_1_6 - t_1_1 - 1000.000000 s_1_1  > -971.548844
t_1_6 - t_2_1 - 1000.000000 s_2_1  > -952.103933
t_2_6 - t_1_1 - 1000.000000 s_1_1  > -971.548844
t_2_6 - t_2_1 - 1000.000000 s_2_1  > -952.103933
s_1_1 + s_1_7 + 1000 r_1_1_7 >= 2
- s_1_1 - s_1_7 - 1000 r_1_1_7 >= -1001
t_1_1 - t_1_7 - 1000.000000 u_1_1_7 - 0.000000 s_1_7  + 2000.000000 r_1_1_7 > -980.271800
s_2_1 + s_2_7 + 1000 r_2_1_7 >= 2
- s_2_1 - s_2_7 - 1000 r_2_1_7 >= -1001
t_2_1 - t_2_7 - 1000.000000 u_2_1_7 - 0.000000 s_2_7  + 2000.000000 r_2_1_7 > -971.371900
s_1_2 + s_1_1 + 1000 r_1_1_2 >= 2
- s_1_2 - s_1_1 - 1000 r_1_1_2 >= -1001
t_1_2 - t_1_1 + 1000.000000 u_1_1_2 - 0.000000 s_1_1  + 2000.000000 r_1_1_2 > 28.451156
s_2_2 + s_2_1 + 1000 r_2_1_2 >= 2
- s_2_2 - s_2_1 - 1000 r_2_1_2 >= -1001
t_2_2 - t_2_1 + 1000.000000 u_2_1_2 - 0.000000 s_2_1  + 2000.000000 r_2_1_2 > 47.896067
s_1_2 + s_1_3 + 1000 r_1_2_3 >= 2
- s_1_2 - s_1_3 - 1000 r_1_2_3 >= -1001
t_1_2 - t_1_3 - 1000.000000 u_1_2_3 - 9.156289 s_1_3  + 9.156289 s_1_7  + 2000.000000 r_1_2_3 > -973.123111
s_2_2 + s_2_3 + 1000 r_2_2_3 >= 2
- s_2_2 - s_2_3 - 1000 r_2_2_3 >= -1001
t_2_2 - t_2_3 - 1000.000000 u_2_2_3 - 9.196603 s_2_3  + 9.196603 s_2_7  + 2000.000000 r_2_2_3 > -950.417322
s_1_2 + s_1_4 + 1000 r_1_2_4 >= 2
- s_1_2 - s_1_4 - 1000 r_1_2_4 >= -1001
t_1_2 - t_1_4 - 1000.000000 u_1_2_4 - 13.565099 s_1_4  + 4.408810 s_1_3  + 9.156289 s_1_7  + 2000.000000 r_1_2_4 > -978.499208
s_2_2 + s_2_4 + 1000 r_2_2_4 >= 2
- s_2_2 - s_2_4 - 1000 r_2_2_4 >= -1001
t_2_2 - t_2_4 - 1000.000000 u_2_2_4 - 12.852339 s_2_4  + 3.655735 s_2_3  + 9.196603 s_2_7  + 2000.000000 r_2_2_4 > -972.667200
s_1_2 + s_1_5 + 1000 r_1_2_5 >= 2
- s_1_2 - s_1_5 - 1000 r_1_2_5 >= -1001
t_1_2 - t_1_5 - 1000.000000 u_1_2_5 - 9.156289 s_1_5  + 9.156289 s_1_7  + 2000.000000 r_1_2_5 > -974.833456
s_2_2 + s_2_5 + 1000 r_2_2_5 >= 2
- s_2_2 - s_2_5 - 1000 r_2_2_5 >= -1001
t_2_2 - t_2_5 - 1000.000000 u_2_2_5 - 9.196603 s_2_5  + 9.196603 s_2_7  + 2000.000000 r_2_2_5 > -964.289389
t_1_6 - t_1_2 - 1009.156289 s_1_2  + 9.156289 s_1_7  > -965.965733
t_1_6 - t_2_2 - 1009.196603 s_2_2  + 9.196603 s_2_7  > -953.792967
t_2_6 - t_1_2 - 1009.156289 s_1_2  + 9.156289 s_1_7  > -965.965733
t_2_6 - t_2_2 - 1009.196603 s_2_2  + 9.196603 s_2_7  > -953.792967
t_1_2 - t_1_7 - 1000.000000 s_1_7  > -980.271800
t_1_2 - t_2_7 - 1000.000000 s_2_7  > -971.371900
t_2_2 - t_1_7 - 1000.000000 s_1_7  > -980.271800
t_2_2 - t_2_7 - 1000.000000 s_2_7  > -971.371900
s_1_3 + s_1_1 + 1000 r_1_1_3 >= 2
- s_1_3 - s_1_1 - 1000 r_1_1_3 >= -1001
t_1_3 - t_1_1 + 1000.000000 u_1_1_3 - 0.000000 s_1_1  + 2000.000000 r_1_1_3 > 28.451156
s_2_3 + s_2_1 + 1000 r_2_1_3 >= 2
- s_2_3 - s_2_1 - 1000 r_2_1_3 >= -1001
t_2_3 - t_2_1 + 1000.000000 u_2_1_3 - 0.000000 s_2_1  + 2000.000000 r_2_1_3 > 47.896067
s_1_3 + s_1_2 + 1000 r_1_2_3 >= 2
- s_1_3 - s_1_2 - 1000 r_1_2_3 >= -1001
t_1_3 - t_1_2 + 1000.000000 u_1_2_3 - 9.156289 s_1_2  + 9.156289 s_1_7  + 2000.000000 r_1_2_3 > 34.034267
s_2_3 + s_2_2 + 1000 r_2_2_3 >= 2
- s_2_3 - s_2_2 - 1000 r_2_2_3 >= -1001
t_2_3 - t_2_2 + 1000.000000 u_2_2_3 - 9.196603 s_2_2  + 9.196603 s_2_7  + 2000.000000 r_2_2_3 > 46.207033
t_1_4 - t_1_3 - 1009.156289 s_1_3  + 9.156289 s_1_7  > -973.123111
t_1_4 - t_2_3 - 1009.196603 s_2_3  + 9.196603 s_2_7  > -950.417322
t_2_4 - t_1_3 - 1009.156289 s_1_3  + 9.156289 s_1_7  > -973.123111
t_2_4 - t_2_3 - 1009.196603 s_2_3  + 9.196603 s_2_7  > -950.417322
s_1_3 + s_1_5 + 1000 r_1_3_5 >= 2
- s_1_3 - s_1_5 - 1000 r_1_3_5 >= -1001
t_1_3 - t_1_5 - 1000.000000 u_1_3_5 - 9.156289 s_1_5  + 9.156289 s_1_7  + 2000.000000 r_1_3_5 > -974.833456
s_2_3 + s_2_5 + 1000 r_2_3_5 >= 2
- s_2_3 - s_2_5 - 1000 r_2_3_5 >= -1001
t_2_3 - t_2_5 - 1000.000000 u_2_3_5 - 9.196603 s_2_5  + 9.196603 s_2_7  + 2000.000000 r_2_3_5 > -964.289389
t_1_6 - t_1_3 - 1009.156289 s_1_3  + 9.156289 s_1_7  > -973.123111
t_1_6 - t_2_3 - 1009.196603 s_2_3  + 9.196603 s_2_7  > -950.417322
t_2_6 - t_1_3 - 1009.156289 s_1_3  + 9.156289 s_1_7  > -973.123111
t_2_6 - t_2_3 - 1009.196603 s_2_3  + 9.196603 s_2_7  > -950.417322
t_1_3 - t_1_7 - 1000.000000 s_1_7  > -980.271800
t_1_3 - t_2_7 - 1000.000000 s_2_7  > -971.371900
t_2_3 - t_1_7 - 1000.000000 s_1_7  > -980.271800
t_2_3 - t_2_7 - 1000.000000 s_2_7  > -971.371900
s_1_4 + s_1_1 + 1000 r_1_1_4 >= 2
- s_1_4 - s_1_1 - 1000 r_1_1_4 >= -1001
t_1_4 - t_1_1 + 1000.000000 u_1_1_4 - 0.000000 s_1_1  + 2000.000000 r_1_1_4 > 28.451156
s_2_4 + s_2_1 + 1000 r_2_1_4 >= 2
- s_2_4 - s_2_1 - 1000 r_2_1_4 >= -1001
t_2_4 - t_2_1 + 1000.000000 u_2_1_4 - 0.000000 s_2_1  + 2000.000000 r_2_1_4 > 47.896067
s_1_4 + s_1_2 + 1000 r_1_2_4 >= 2
- s_1_4 - s_1_2 - 1000 r_1_2_4 >= -1001
t_1_4 - t_1_2 + 1000.000000 u_1_2_4 - 9.156289 s_1_2  + 9.156289 s_1_7  + 2000.000000 r_1_2_4 > 34.034267
s_2_4 + s_2_2 + 1000 r_2_2_4 >= 2
- s_2_4 - s_2_2 - 1000 r_2_2_4 >= -1001
t_2_4 - t_2_2 + 1000.000000 u_2_2_4 - 9.196603 s_2_2  + 9.196603 s_2_7  + 2000.000000 r_2_2_4 > 46.207033
s_1_4 + s_1_5 + 1000 r_1_4_5 >= 2
- s_1_4 - s_1_5 - 1000 r_1_4_5 >= -1001
t_1_4 - t_1_5 - 1000.000000 u_1_4_5 - 9.156289 s_1_5  + 9.156289 s_1_7  + 2000.000000 r_1_4_5 > -974.833456
s_2_4 + s_2_5 + 1000 r_2_4_5 >= 2
- s_2_4 - s_2_5 - 1000 r_2_4_5 >= -1001
t_2_4 - t_2_5 - 1000.000000 u_2_4_5 - 9.196603 s_2_5  + 9.196603 s_2_7  + 2000.000000 r_2_4_5 > -964.289389
t_1_6 - t_1_4 - 1013.565099 s_1_4  + 4.408810 s_1_3  + 9.156289 s_1_7  > -978.499208
t_1_6 - t_2_4 - 1012.852339 s_2_4  + 3.655735 s_2_3  + 9.196603 s_2_7  > -972.667200
t_2_6 - t_1_4 - 1013.565099 s_1_4  + 4.408810 s_1_3  + 9.156289 s_1_7  > -978.499208
t_2_6 - t_2_4 - 1012.852339 s_2_4  + 3.655735 s_2_3  + 9.196603 s_2_7  > -972.667200
t_1_4 - t_1_7 - 1000.000000 s_1_7  > -980.271800
t_1_4 - t_2_7 - 1000.000000 s_2_7  > -971.371900
t_2_4 - t_1_7 - 1000.000000 s_1_7  > -980.271800
t_2_4 - t_2_7 - 1000.000000 s_2_7  > -971.371900
s_1_5 + s_1_1 + 1000 r_1_1_5 >= 2
- s_1_5 - s_1_1 - 1000 r_1_1_5 >= -1001
t_1_5 - t_1_1 + 1000.000000 u_1_1_5 - 0.000000 s_1_1  + 2000.000000 r_1_1_5 > 28.451156
s_2_5 + s_2_1 + 1000 r_2_1_5 >= 2
- s_2_5 - s_2_1 - 1000 r_2_1_5 >= -1001
t_2_5 - t_2_1 + 1000.000000 u_2_1_5 - 0.000000 s_2_1  + 2000.000000 r_2_1_5 > 47.896067
s_1_5 + s_1_2 + 1000 r_1_2_5 >= 2
- s_1_5 - s_1_2 - 1000 r_1_2_5 >= -1001
t_1_5 - t_1_2 + 1000.000000 u_1_2_5 - 9.156289 s_1_2  + 9.156289 s_1_7  + 2000.000000 r_1_2_5 > 34.034267
s_2_5 + s_2_2 + 1000 r_2_2_5 >= 2
- s_2_5 - s_2_2 - 1000 r_2_2_5 >= -1001
t_2_5 - t_2_2 + 1000.000000 u_2_2_5 - 9.196603 s_2_2  + 9.196603 s_2_7  + 2000.000000 r_2_2_5 > 46.207033
s_1_5 + s_1_3 + 1000 r_1_3_5 >= 2
- s_1_5 - s_1_3 - 1000 r_1_3_5 >= -1001
t_1_5 - t_1_3 + 1000.000000 u_1_3_5 - 9.156289 s_1_3  + 9.156289 s_1_7  + 2000.000000 r_1_3_5 > 26.876889
s_2_5 + s_2_3 + 1000 r_2_3_5 >= 2
- s_2_5 - s_2_3 - 1000 r_2_3_5 >= -1001
t_2_5 - t_2_3 + 1000.000000 u_2_3_5 - 9.196603 s_2_3  + 9.196603 s_2_7  + 2000.000000 r_2_3_5 > 49.582678
s_1_5 + s_1_4 + 1000 r_1_4_5 >= 2
- s_1_5 - s_1_4 - 1000 r_1_4_5 >= -1001
t_1_5 - t_1_4 + 1000.000000 u_1_4_5 - 13.565099 s_1_4  + 4.408810 s_1_3  + 9.156289 s_1_7  + 2000.000000 r_1_4_5 > 21.500792
s_2_5 + s_2_4 + 1000 r_2_4_5 >= 2
- s_2_5 - s_2_4 - 1000 r_2_4_5 >= -1001
t_2_5 - t_2_4 + 1000.000000 u_2_4_5 - 12.852339 s_2_4  + 3.655735 s_2_3  + 9.196603 s_2_7  + 2000.000000 r_2_4_5 > 27.332800
t_1_6 - t_1_5 - 1009.156289 s_1_5  + 9.156289 s_1_7  > -974.833456
t_1_6 - t_2_5 - 1009.196603 s_2_5  + 9.196603 s_2_7  > -964.289389
t_2_6 - t_1_5 - 1009.156289 s_1_5  + 9.156289 s_1_7  > -974.833456
t_2_6 - t_2_5 - 1009.196603 s_2_5  + 9.196603 s_2_7  > -964.289389
t_1_5 - t_1_7 - 1000.000000 s_1_7  > -980.271800
t_1_5 - t_2_7 - 1000.000000 s_2_7  > -971.371900
t_2_5 - t_1_7 - 1000.000000 s_1_7  > -980.271800
t_2_5 - t_2_7 - 1000.000000 s_2_7  > -971.371900
s_1_7 + s_1_1 + 1000 r_1_1_7 >= 2
- s_1_7 - s_1_1 - 1000 r_1_1_7 >= -1001
t_1_7 - t_1_1 + 1000.000000 u_1_1_7 - 0.000000 s_1_1  + 2000.000000 r_1_1_7 > 28.451156
s_2_7 + s_2_1 + 1000 r_2_1_7 >= 2
- s_2_7 - s_2_1 - 1000 r_2_1_7 >= -1001
t_2_7 - t_2_1 + 1000.000000 u_2_1_7 - 0.000000 s_2_1  + 2000.000000 r_2_1_7 > 47.896067
Binary
s_1_1
s_2_1
s_1_2
s_2_2
s_1_3
s_2_3
s_1_4
s_2_4
s_1_5
s_2_5
s_1_6
s_2_6
s_1_7
s_2_7
u_1_1_2
r_1_1_2
u_2_1_2
r_2_1_2
u_1_1_3
r_1_1_3
u_2_1_3
r_2_1_3
u_1_1_4
r_1_1_4
u_2_1_4
r_2_1_4
u_1_1_5
r_1_1_5
u_2_1_5
r_2_1_5
u_1_1_7
r_1_1_7
u_2_1_7
r_2_1_7
u_1_2_3
r_1_2_3
u_2_2_3
r_2_2_3
u_1_2_4
r_1_2_4
u_2_2_4
r_2_2_4
u_1_2_5
r_1_2_5
u_2_2_5
r_2_2_5
u_1_3_5
r_1_3_5
u_2_3_5
r_2_3_5
u_1_4_5
r_1_4_5
u_2_4_5
r_2_4_5

End
